============================[ Problem Statistics ]=============================|                                                                             ||  Number of variables:          4242                                         ||  Number of clauses:           10390                                         ||  Parse time:                   0.78 s                                       ||                                                                             |============================[ Search Statistics ]==============================| Conflicts |          ORIGINAL         |          LEARNT          | Progress ||           |    Vars  Clauses Literals |    Limit  Clauses Lit/Cl |          |===============================================================================|       100 |    1591     6595  1240046 |     2418      100     53 | 62.501 % ||       250 |    1591     6595  1240046 |     2659      250     75 | 62.495 % |===============================================================================restarts              : 4conflicts             : 420            (359 /sec)decisions             : 781            (0.00 % random) (667 /sec)propagations          : 13685          (11687 /sec)conflict literals     : 35162          (94.51 % deleted)CPU time              : 1.171 sSATISFIABLE